sets/C/cp-n6-k2-b.vrp
NAME : cp-n6-k2-b
COMMENT : (Claudio Procida)
TYPE : CVRP
DIMENSION : 6
EDGE_WEIGHT_TYPE : EUC_2D
CAPACITY : 50
NODE_COORD_SECTION
1 20 52
2 42 39
3 36 38
4  0 17
5  2 44
6 12 15
DEMAND_SECTION
1 0
2 31
3 11
4 8
5 12
6 9
DEPOT_SECTION
1
-1
EOF
