sets/C/cp-n6-k2-b.opt
Route #1: 1 2
Route #2: 4 3 5
cost 150
